sat
((a 0)
 (a_1 0)
 (a_2 1)
 (a_3 0)
 (a_4 0)
 (a_5 0)
 (c 0)
 (c_1 0)
 (c_2 0)
 (dir false)
 (dir_1 false)
 (dir_2 false)
 (dir_3 false)
 (dir_4 false)
 (dir_5 false)
 (pos P2)
 (pos_1 P0)
 (pos_2 P4)
 (pos_3 P4)
 (pos_4 P0)
 (pos_5 P3))
